c   #vars: 83   #clauses: 364   #literals: 1014
c 
p cnf 83 364
6 -64 77 78 0
-2 -3 0
-4 -5 0
15 33 34 -58 0
-7 -8 0
-9 -10 0
-11 -12 0
-13 -14 0
24 64 65 -68 0
-16 -17 0
-18 -19 0
-20 -21 0
-22 -23 0
27 28 35 -64 0
4 5 80 81 0
49 50 80 81 0
-25 -26 0
-27 -28 0
-29 -30 0
-31 -32 0
-33 -34 0
18 19 46 -82 0
-36 -37 0
-38 -39 0
-40 -41 0
-42 -43 0
-44 -45 0
7 8 55 -72 0
-47 -48 0
-49 -50 0
-51 -52 0
-53 -54 0
7 8 -34 58 0
16 17 77 78 0
-56 -57 0
24 -64 66 67 0
42 43 61 62 0
-44 49 50 63 0
-59 -60 0
-61 -62 0
13 14 -42 74 0
-64 -65 0
-66 -67 0
-68 -69 0
-70 -71 0
31 32 64 65 0
-72 -73 0
-22 25 26 79 0
11 12 66 67 0
-75 -76 0
-77 -78 0
2 3 49 50 0
-80 -81 0
-82 -83 0
40 41 82 83 0
6 -56 77 78 0
-1 -30 0
36 37 66 67 0
6 56 57 -77 0
-1 -34 0
6 56 57 -64 0
-1 -37 0
7 8 51 52 0
-2 -31 0
-3 -32 0
7 8 38 39 0
-2 -40 0
-3 -41 0
25 26 51 52 0
-2 -49 0
-3 -50 0
7 8 -15 58 0
-3 -55 0
7 8 59 60 0
-2 -66 0
-3 -67 0
-2 -72 0
-3 -73 0
20 21 75 76 0
18 19 46 -75 0
-5 -35 0
-4 -44 0
-5 -45 0
25 26 64 65 0
11 12 31 32 0
1 29 30 -36 0
6 -56 64 65 0
-11 25 26 79 0
-5 -74 0
13 14 59 60 0
-4 -80 0
-5 -81 0
29 30 61 62 0
15 33 34 -53 0
-6 -57 0
13 14 40 41 0
36 37 -44 63 0
-6 -65 0
36 37 -49 63 0
-6 -78 0
9 10 42 43 0
-7 -38 0
-8 -39 0
-7 -51 0
-8 -52 0
-4 35 64 65 0
-15 33 34 58 0
-8 -55 0
-7 -58 0
-36 49 50 63 0
16 17 82 83 0
-7 -59 0
-8 -60 0
27 28 51 52 0
-7 -75 0
-8 -76 0
1 -33 36 37 0
-9 -31 0
-10 -32 0
-2 55 72 73 0
-9 -38 0
-10 -39 0
13 14 72 73 0
-9 -42 0
-10 -43 0
-8 15 -33 58 0
-9 -56 0
-10 -57 0
36 37 80 81 0
-11 -31 0
-12 -32 0
27 28 61 62 0
-11 -36 0
-12 -37 0
18 19 56 57 0
-11 -53 0
-12 -54 0
49 50 68 69 0
-11 -56 0
-12 -57 0
2 3 72 73 0
-11 -61 0
-12 -62 0
-11 -66 0
-12 -67 0
38 39 70 71 0
-11 -68 0
-12 -69 0
-12 -79 0
-7 55 72 73 0
-13 -40 0
-14 -41 0
15 -34 -53 58 0
-13 -59 0
-14 -60 0
11 12 68 69 0
-13 -70 0
-14 -71 0
47 48 64 65 0
-13 -72 0
-14 -73 0
1 -29 36 37 0
22 23 -25 79 0
-14 -74 0
47 48 70 71 0
24 64 65 -66 0
-15 -34 0
18 19 75 76 0
24 -66 68 69 0
-15 -54 0
2 3 66 67 0
24 -64 68 69 0
44 45 -49 63 0
11 12 36 37 0
-16 -33 0
-17 -34 0
15 53 54 -58 0
-16 -51 0
-17 -52 0
27 28 40 41 0
-16 -77 0
-17 -78 0
20 21 70 71 0
-16 -82 0
-17 -83 0
53 54 64 65 0
-2 7 8 55 0
-19 -46 0
22 23 82 83 0
-18 -56 0
-19 -57 0
22 23 29 30 0
-18 -66 0
-19 -67 0
-18 -72 0
-19 -73 0
-18 46 75 76 0
-18 -75 0
-19 -76 0
-20 -38 0
-21 -39 0
22 23 72 73 0
-20 -53 0
-21 -54 0
-20 -70 0
-21 -71 0
40 41 61 62 0
-20 -75 0
-21 -76 0
16 17 33 34 0
-22 -29 0
-23 -30 0
25 26 47 48 0
-22 -38 0
-23 -39 0
-22 -72 0
-23 -73 0
-27 35 64 65 0
-23 -79 0
-22 -82 0
-23 -83 0
18 19 66 67 0
-4 27 28 35 0
-24 -65 0
31 32 77 78 0
4 5 35 -64 0
-24 -67 0
4 5 -27 35 0
-24 -69 0
22 23 38 39 0
-25 -44 0
-26 -45 0
29 30 59 60 0
-25 -47 0
-26 -48 0
20 21 38 39 0
-25 -51 0
-26 -52 0
9 10 38 39 0
-25 -64 0
-26 -65 0
-4 42 43 74 0
-26 -79 0
11 12 61 62 0
46 -75 82 83 0
-28 -35 0
2 3 31 32 0
-27 -40 0
-28 -41 0
-13 42 43 74 0
-27 -44 0
-28 -45 0
20 21 53 54 0
-27 -51 0
-28 -52 0
-27 -59 0
-28 -60 0
31 32 80 81 0
-27 -61 0
-28 -62 0
-29 -59 0
-30 -60 0
24 66 67 -68 0
-29 -61 0
-30 -62 0
36 37 77 78 0
-31 -64 0
-32 -65 0
-31 -77 0
-32 -78 0
-8 15 -53 58 0
-31 -80 0
-32 -81 0
11 12 53 54 0
-33 -58 0
-36 44 45 63 0
18 19 72 73 0
-18 46 82 83 0
-35 -65 0
11 12 56 57 0
-4 13 14 74 0
-37 -63 0
53 54 61 62 0
-36 -66 0
-37 -67 0
56 57 80 81 0
-36 -77 0
-37 -78 0
15 -33 53 54 0
-36 -80 0
-37 -81 0
11 12 -22 79 0
-38 -70 0
-39 -71 0
42 43 72 73 0
-40 -61 0
-41 -62 0
7 8 75 76 0
-40 -66 0
-41 -67 0
13 14 70 71 0
-40 -68 0
-41 -69 0
1 33 34 -36 0
-40 -82 0
-41 -83 0
25 26 44 45 0
-42 -61 0
-43 -62 0
4 5 44 45 0
-42 -68 0
-43 -69 0
-42 -72 0
-43 -73 0
40 41 66 67 0
-11 22 23 79 0
-43 -74 0
47 48 75 76 0
4 5 -42 74 0
-45 -63 0
-44 -75 0
-45 -76 0
27 28 44 45 0
2 3 55 -72 0
-46 -76 0
15 -33 -34 58 0
2 3 -7 55 0
-46 -83 0
9 10 31 32 0
-47 -64 0
-48 -65 0
2 3 40 41 0
-47 -70 0
-48 -71 0
46 75 76 -82 0
-47 -75 0
-48 -76 0
4 5 -13 74 0
-50 -63 0
16 17 51 52 0
-49 -68 0
-50 -69 0
1 -29 33 34 0
-49 -75 0
-50 -76 0
40 41 68 69 0
-49 -80 0
-50 -81 0
11 12 -25 79 0
6 64 65 -77 0
1 29 30 -33 0
9 10 56 57 0
-53 -61 0
-54 -62 0
-53 -64 0
-54 -65 0
27 28 59 60 0
-8 33 34 58 0
-55 -73 0
44 45 75 76 0
49 50 75 76 0
42 43 68 69 0
-56 -80 0
-57 -81 0
